20
1 0 2
2 0 1
2 1 4
3 0 4
3 1 5
3 2 4
4 0 3
4 1 8
4 2 6
4 3 7
5 0 9
5 1 9
5 2 8
5 3 2
5 4 9
6 0 1
6 1 8
6 2 4
6 3 11
6 4 11
6 5 10
7 0 6
7 1 7
7 2 5
7 3 11
7 4 4
7 5 4
7 6 6
8 0 8
8 1 3
8 2 5
8 3 8
8 4 8
8 5 4
8 6 9
8 7 7
9 0 4
9 1 10
9 2 8
9 3 11
9 4 9
9 5 8
9 6 3
9 7 5
9 8 5
10 0 7
10 1 5
10 2 5
10 3 11
10 4 3
10 5 10
10 6 3
10 7 5
10 8 7
10 9 7
11 0 9
11 1 8
11 2 5
11 3 9
11 4 5
11 5 10
11 6 2
11 7 2
11 8 9
11 9 3
11 10 6
12 0 10
12 1 3
12 2 7
12 3 3
12 4 2
12 5 1
12 6 4
12 7 6
12 8 9
12 9 4
12 10 7
12 11 7
13 0 2
13 1 5
13 2 1
13 3 3
13 4 7
13 5 3
13 6 7
13 7 11
13 8 11
13 9 4
13 10 1
13 11 7
13 12 9
14 0 6
14 1 8
14 2 11
14 3 3
14 4 10
14 5 4
14 6 4
14 7 10
14 8 5
14 9 4
14 10 8
14 11 3
14 12 3
14 13 2
15 0 6
15 1 5
15 2 4
15 3 4
15 4 7
15 5 3
15 6 4
15 7 4
15 8 9
15 9 9
15 10 9
15 11 1
15 12 6
15 13 1
15 14 9
16 0 2
16 1 8
16 2 6
16 3 9
16 4 6
16 5 8
16 6 2
16 7 1
16 8 5
16 9 7
16 10 1
16 11 7
16 12 7
16 13 6
16 14 4
16 15 5
17 0 8
17 1 10
17 2 1
17 3 3
17 4 11
17 5 7
17 6 5
17 7 10
17 8 5
17 9 4
17 10 9
17 11 2
17 12 2
17 13 2
17 14 4
17 15 9
17 16 1
18 0 1
18 1 3
18 2 2
18 3 4
18 4 10
18 5 7
18 6 6
18 7 4
18 8 5
18 9 4
18 10 10
18 11 5
18 12 5
18 13 6
18 14 4
18 15 7
18 16 10
18 17 4
19 0 3
19 1 8
19 2 11
19 3 3
19 4 11
19 5 9
19 6 11
19 7 7
19 8 4
19 9 11
19 10 7
19 11 6
19 12 7
19 13 2
19 14 9
19 15 5
19 16 9
19 17 4
19 18 9
